p edge 22 33
e 1 2
e 1 6
e 1 7
e 1 8
e 1 9
e 1 10
e 1 11
e 1 12
e 1 13
e 1 14
e 1 15
e 1 19
e 1 21
e 2 6
e 2 7
e 2 8
e 2 9
e 2 10
e 2 11
e 2 12
e 2 13
e 2 14
e 2 15
e 2 19
e 2 21
e 3 5
e 4 16
e 12 15
e 12 14
e 12 13
e 16 17
e 16 18
e 20 22
